c defined variables: 33 34 35 36 37 38 39 40 41 42 43 44 45 46 47 48 49 50 51 52 53 54 55 56 57 58 59 60 61 62 63 64 65 66 67 68 69 70 71 72 73 74 75 76 77 78 79 80 81 82 83 84 85 86 87 88 89 90 91 92 93 94 95 96 97 98 99 100 101 102 103 104 105 106 107 108 109 110 111 112 113 114 115 116 117 118 119 120 121 122 123 124 125 126 127 128 129 130 131 132 133 134 135 136 137 138 139 140 141 142 143 144 145 146 147 148 149 150 151 152 153 154 155 156 157 158 159 160 161 162 163 164 165 166 167 197 198 199 200 201 202 203 204 205 206 207 208 209 210 211 212 213 214 215 216 217 218 219 220 221 222 223 224 225 226 227 228 229 230 231 232 233 234 235 236 237 238 239 240 241 242 243 244 245 246 247 248 249 250 251 252 253 254 255 256 257 258 259 260 261 262 263 264 265 266 267 268 269 270 271 272 273 274 275 276 277 278 279 280 281 282 286 287 288 289 290 291 292 293 294 295 296 297 298 299 300 301 302 303 304 305 306 307 308 309 310 311 312 
p cnf 1364 2081
a 1 2 3 4 5 6 7 8 9 10 11 12 13 14 15 16 17 18 19 20 21 22 23 24 25 26 27 28 29 30 31 32 171 172 173 174 175 176 177 178 179 180 181 182 183 184 185 186 187 188 189 190 191 192 193 194 195 196 0
e 33 34 35 36 37 38 39 40 41 42 43 44 45 46 47 48 49 50 51 52 53 54 55 56 57 58 59 60 61 62 63 64 65 66 67 68 69 70 71 72 73 74 75 76 77 78 79 80 81 82 83 84 85 86 87 88 89 90 91 92 93 94 95 96 97 98 99 100 101 102 103 104 105 106 107 108 109 110 111 112 113 114 115 116 117 118 119 120 121 122 123 124 125 126 127 128 129 130 131 132 133 134 135 136 137 138 139 140 141 142 143 144 145 146 147 148 149 150 151 152 153 154 155 156 157 158 159 160 161 162 163 164 165 166 167 197 198 199 200 201 202 203 204 205 206 207 208 209 210 211 212 213 214 215 216 217 218 219 220 221 222 223 224 225 226 227 228 229 230 231 232 233 234 235 236 237 238 239 240 241 242 243 244 245 246 247 248 249 250 251 252 253 254 255 256 257 258 259 260 261 262 263 264 265 266 267 268 269 270 271 272 273 274 275 276 277 278 279 280 281 282 286 287 288 289 290 291 292 293 294 295 296 297 298 299 300 301 302 303 304 305 306 307 308 309 310 311 312 1098 1099 1100 1101 1102 1103 1104 1105 1106 1107 1108 1109 1110 1111 1112 1113 1114 1115 1116 1117 1118 1119 1120 1121 1122 1123 1124 1125 1126 1127 1128 1129 1130 1131 1132 1133 1134 1135 1136 1137 1138 1139 1140 1141 1142 1143 1144 1145 1146 1147 1148 1149 1150 1151 1152 1153 1154 1155 1156 1157 1158 1159 1160 1161 1162 1163 1164 1165 1166 1167 1168 1169 1170 1171 1172 1173 1174 1175 1176 1177 1178 1179 1180 1181 1182 1183 1184 1185 1186 1187 1188 1189 1190 1191 1192 1193 1194 1195 1196 1197 1198 1199 1200 1201 1202 1203 1204 1205 1206 1207 1208 1209 1210 1211 1212 1213 1214 1215 1216 1217 1218 1219 1220 1221 1222 1223 1224 1225 1226 1227 1228 1229 1230 1231 1232 1233 1234 1235 1236 1237 1238 1239 1240 1241 1242 1243 1244 1245 1246 1247 1248 1249 1250 1251 1252 1253 1254 1255 1256 1257 1258 1259 1260 1261 1262 1263 1264 1265 1266 1267 1268 1269 1270 1271 1272 1273 1274 1275 1276 1277 1278 1279 1280 1281 1282 1283 1284 1285 1286 1287 1288 1289 1290 1291 1292 1293 1294 1295 1296 1297 1298 1299 1300 1301 1302 1303 1304 1305 1306 1307 1308 1309 1310 1311 1312 1313 1314 1315 1316 1317 1318 1319 1320 1321 1322 1323 1324 1325 1326 1327 1328 1329 1330 1331 1332 1333 1334 1335 1336 1337 1338 1339 1340 1341 1342 1343 1344 1345 1346 1347 1348 1349 1350 1351 1352 1353 1354 1355 1356 1357 1358 1359 1360 1361 1362 1363 1364 0
d 170 171 172 173 174 175 176 177 178 179 180 181 182 183 184 185 186 187 188 189 190 191 192 193 194 195 196 0
d 169 179 180 181 182 183 184 185 186 187 188 189 190 191 192 193 194 195 196 171 172 173 174 175 176 177 178 0
d 168 179 180 181 182 183 184 185 186 187 188 189 190 191 192 193 194 195 196 171 172 173 174 175 176 177 178 0
d 283 1 2 3 4 5 6 7 8 9 10 11 12 13 14 15 16 17 18 19 20 21 22 23 24 25 26 27 28 29 30 31 32 171 172 173 174 175 176 177 178 179 180 181 182 183 184 185 186 187 188 189 190 191 192 193 194 195 196 0
d 284 1 2 3 4 5 6 7 8 9 10 11 12 13 14 15 16 17 18 19 20 21 22 23 24 25 26 27 28 29 30 31 32 171 172 173 174 175 176 177 178 179 180 181 182 183 184 185 186 187 188 189 190 191 192 193 194 195 196 0
d 285 1 2 3 4 5 6 7 8 9 10 11 12 13 14 15 16 17 18 19 20 21 22 23 24 25 26 27 28 29 30 31 32 171 172 173 174 175 176 177 178 179 180 181 182 183 184 185 186 187 188 189 190 191 192 193 194 195 196 0
1098 -33 0
-1098 33 0
1099 -34 0
-1099 34 0
-1100 -35 0
1100 35 0
1101 -36 0
-1101 36 0
1102 -37 0
-1102 37 0
-1103 -38 0
1103 38 0
1104 -39 0
-1104 39 0
1105 -40 0
-1105 40 0
-1106 -41 0
1106 41 0
-12 -42 0
12 42 0
-1107 -43 0
1107 43 0
-11 -44 0
11 44 0
-1108 -45 0
1108 45 0
-10 -46 0
10 46 0
-1109 -47 0
1109 47 0
-9 -48 0
9 48 0
-1110 -49 0
1110 49 0
-49 -50 0
49 50 0
1111 -51 0
-1111 51 0
1113 -52 0
-1113 52 0
1115 -53 0
-1115 53 0
-1118 -54 0
1118 54 0
1119 -55 0
-1119 55 0
1120 -56 0
-1120 56 0
-1121 -57 0
1121 57 0
1122 -58 0
-1122 58 0
1123 -59 0
-1123 59 0
1124 -60 0
-1124 60 0
1125 -61 0
-1125 61 0
-1126 -62 0
1126 62 0
1127 -63 0
-1127 63 0
1128 -64 0
-1128 64 0
-1129 -65 0
1129 65 0
1130 -66 0
-1130 66 0
1131 -67 0
-1131 67 0
-1132 -68 0
1132 68 0
1133 -69 0
-1133 69 0
1134 -70 0
-1134 70 0
-1135 -71 0
1135 71 0
-8 -72 0
8 72 0
-1136 -73 0
1136 73 0
-7 -74 0
7 74 0
-1137 -75 0
1137 75 0
-6 -76 0
6 76 0
-1138 -77 0
1138 77 0
-5 -78 0
5 78 0
-1139 -79 0
1139 79 0
-79 -80 0
79 80 0
1140 -81 0
-1140 81 0
1142 -82 0
-1142 82 0
1144 -83 0
-1144 83 0
-1147 -84 0
1147 84 0
1148 -85 0
-1148 85 0
1149 -86 0
-1149 86 0
-1150 -87 0
1150 87 0
1151 -88 0
-1151 88 0
1152 -89 0
-1152 89 0
1153 -90 0
-1153 90 0
1154 -91 0
-1154 91 0
-1155 -92 0
1155 92 0
1156 -93 0
-1156 93 0
1157 -94 0
-1157 94 0
-1158 -95 0
1158 95 0
1159 -96 0
-1159 96 0
1160 -97 0
-1160 97 0
-1161 -98 0
1161 98 0
1162 -99 0
-1162 99 0
1163 -100 0
-1163 100 0
-1164 -101 0
1164 101 0
-4 -102 0
4 102 0
-1165 -103 0
1165 103 0
-3 -104 0
3 104 0
-1166 -105 0
1166 105 0
-2 -106 0
2 106 0
-1167 -107 0
1167 107 0
-1 -108 0
1 108 0
-1168 -109 0
1168 109 0
-109 -110 0
109 110 0
1169 -111 0
-1169 111 0
1171 -112 0
-1171 112 0
1173 -113 0
-1173 113 0
-1176 -114 0
1176 114 0
1177 -115 0
-1177 115 0
1178 -116 0
-1178 116 0
-1179 -117 0
1179 117 0
1180 -118 0
-1180 118 0
1181 -119 0
-1181 119 0
1182 -120 0
-1182 120 0
1183 -121 0
-1183 121 0
-1184 -122 0
1184 122 0
1185 -123 0
-1185 123 0
1186 -124 0
-1186 124 0
-1187 -125 0
1187 125 0
1188 -126 0
-1188 126 0
1189 -127 0
-1189 127 0
-1190 -128 0
1190 128 0
1191 -129 0
-1191 129 0
1192 -130 0
-1192 130 0
-1193 -131 0
1193 131 0
-16 -132 0
16 132 0
-1194 -133 0
1194 133 0
-15 -134 0
15 134 0
-1195 -135 0
1195 135 0
-14 -136 0
14 136 0
-1196 -137 0
1196 137 0
-13 -138 0
13 138 0
-1197 -139 0
1197 139 0
-139 -140 0
139 140 0
1198 -141 0
-1198 141 0
1200 -142 0
-1200 142 0
1202 -143 0
-1202 143 0
-1205 -144 0
1205 144 0
1206 -145 0
-1206 145 0
1207 -146 0
-1207 146 0
-1208 -147 0
1208 147 0
1209 -148 0
-1209 148 0
1210 -149 0
-1210 149 0
-144 -150 0
144 150 0
-1211 -151 0
1211 151 0
-54 -152 0
54 152 0
-1212 -153 0
1212 153 0
-84 -154 0
84 154 0
-1213 -155 0
1213 155 0
-114 -156 0
114 156 0
-1214 -157 0
1214 157 0
-157 -158 0
157 158 0
1215 -159 0
-1215 159 0
1217 -160 0
-1217 160 0
1219 -161 0
-1219 161 0
-1222 -162 0
1222 162 0
1223 -163 0
-1223 163 0
1224 -164 0
-1224 164 0
-1225 -165 0
1225 165 0
1226 -166 0
-1226 166 0
1227 -167 0
-1227 167 0
1185 -197 0
-1185 197 0
1186 -198 0
-1186 198 0
-1228 -199 0
1228 199 0
1188 -200 0
-1188 200 0
1189 -201 0
-1189 201 0
-1229 -202 0
1229 202 0
1191 -203 0
-1191 203 0
1192 -204 0
-1192 204 0
-1230 -205 0
1230 205 0
-16 -206 0
16 206 0
-1231 -207 0
1231 207 0
-15 -208 0
15 208 0
-1232 -209 0
1232 209 0
-14 -210 0
14 210 0
-1233 -211 0
1233 211 0
-13 -212 0
13 212 0
-1234 -213 0
1234 213 0
1206 -214 0
-1206 214 0
1207 -215 0
-1207 215 0
-1235 -216 0
1235 216 0
1098 -217 0
-1098 217 0
1099 -218 0
-1099 218 0
-1236 -219 0
1236 219 0
1101 -220 0
-1101 220 0
1102 -221 0
-1102 221 0
-1237 -222 0
1237 222 0
1104 -223 0
-1104 223 0
1105 -224 0
-1105 224 0
-1238 -225 0
1238 225 0
-12 -226 0
12 226 0
-1239 -227 0
1239 227 0
-11 -228 0
11 228 0
-1240 -229 0
1240 229 0
-10 -230 0
10 230 0
-1241 -231 0
1241 231 0
-9 -232 0
9 232 0
-1242 -233 0
1242 233 0
1119 -234 0
-1119 234 0
1120 -235 0
-1120 235 0
-1243 -236 0
1243 236 0
1127 -237 0
-1127 237 0
1128 -238 0
-1128 238 0
-1244 -239 0
1244 239 0
1130 -240 0
-1130 240 0
1131 -241 0
-1131 241 0
-1245 -242 0
1245 242 0
1133 -243 0
-1133 243 0
1134 -244 0
-1134 244 0
-1246 -245 0
1246 245 0
-8 -246 0
8 246 0
-1247 -247 0
1247 247 0
-7 -248 0
7 248 0
-1248 -249 0
1248 249 0
-6 -250 0
6 250 0
-1249 -251 0
1249 251 0
-5 -252 0
5 252 0
-1250 -253 0
1250 253 0
1148 -254 0
-1148 254 0
1149 -255 0
-1149 255 0
-1251 -256 0
1251 256 0
1156 -257 0
-1156 257 0
1157 -258 0
-1157 258 0
-1252 -259 0
1252 259 0
1159 -260 0
-1159 260 0
1160 -261 0
-1160 261 0
-1253 -262 0
1253 262 0
1162 -263 0
-1162 263 0
1163 -264 0
-1163 264 0
-1254 -265 0
1254 265 0
-4 -266 0
4 266 0
-1255 -267 0
1255 267 0
-3 -268 0
3 268 0
-1256 -269 0
1256 269 0
-2 -270 0
2 270 0
-1257 -271 0
1257 271 0
-1 -272 0
1 272 0
-1258 -273 0
1258 273 0
-273 -274 0
273 274 0
1259 -275 0
-1259 275 0
1261 -276 0
-1261 276 0
1263 -277 0
-1263 277 0
-1266 -278 0
1266 278 0
1177 -279 0
-1177 279 0
1178 -280 0
-1178 280 0
-1267 -281 0
1267 281 0
1268 -282 0
-1268 282 0
1270 -286 0
-1270 286 0
1273 -287 0
-1273 287 0
1281 -288 0
-1281 288 0
1284 -289 0
-1284 289 0
1287 -290 0
-1287 290 0
-1290 -291 0
1290 291 0
-1293 -292 0
1293 292 0
-1296 -293 0
1296 293 0
1300 -294 0
-1300 294 0
1308 -295 0
-1308 295 0
1311 -296 0
-1311 296 0
1314 -297 0
-1314 297 0
1317 -298 0
-1317 298 0
-1320 -299 0
1320 299 0
-1323 -300 0
1323 300 0
-1326 -301 0
1326 301 0
1329 -302 0
-1329 302 0
1332 -303 0
-1332 303 0
1340 -304 0
-1340 304 0
1343 -305 0
-1343 305 0
1346 -306 0
-1346 306 0
-1349 -307 0
1349 307 0
-1352 -308 0
1352 308 0
-1355 -309 0
1355 309 0
1358 -310 0
-1358 310 0
1361 -311 0
-1361 311 0
1364 -312 0
-1364 312 0
-33 -11 0
-33 27 0
11 -27 33 0
-34 11 0
-34 -27 0
-11 27 34 0
-33 35 0
-34 35 0
-35 33 34 0
-36 -10 0
-36 26 0
10 -26 36 0
-37 10 0
-37 -26 0
-10 26 37 0
-36 38 0
-37 38 0
-38 36 37 0
-39 -9 0
-39 25 0
9 -25 39 0
-40 9 0
-40 -25 0
-9 25 40 0
-39 41 0
-40 41 0
-41 39 40 0
-12 -42 0
12 42 0
-42 43 0
-28 43 0
-43 42 28 0
-11 -44 0
11 44 0
-44 45 0
-27 45 0
-45 44 27 0
-10 -46 0
10 46 0
-46 47 0
-26 47 0
-47 46 26 0
-9 -48 0
9 48 0
-48 49 0
-25 49 0
-49 48 25 0
-49 -50 0
49 50 0
-51 -41 0
-51 -47 0
41 47 51 0
-52 -38 0
-52 -41 0
-52 -45 0
38 41 45 52 0
-53 -35 0
-53 -38 0
-53 -41 0
-53 -43 0
35 38 41 43 53 0
-50 54 0
-51 54 0
-52 54 0
-53 54 0
-54 50 51 52 53 0
-55 -12 0
-55 28 0
12 -28 55 0
-56 12 0
-56 -28 0
-12 28 56 0
-55 57 0
-56 57 0
-57 55 56 0
-58 -57 0
-58 -35 0
-58 -38 0
-58 -41 0
57 35 38 41 58 0
-59 -54 0
-59 -58 0
54 58 59 0
-60 -54 0
-60 59 0
54 -59 60 0
-61 54 0
-61 -59 0
-54 59 61 0
-60 62 0
-61 62 0
-62 60 61 0
-63 -7 0
-63 23 0
7 -23 63 0
-64 7 0
-64 -23 0
-7 23 64 0
-63 65 0
-64 65 0
-65 63 64 0
-66 -6 0
-66 22 0
6 -22 66 0
-67 6 0
-67 -22 0
-6 22 67 0
-66 68 0
-67 68 0
-68 66 67 0
-69 -5 0
-69 21 0
5 -21 69 0
-70 5 0
-70 -21 0
-5 21 70 0
-69 71 0
-70 71 0
-71 69 70 0
-8 -72 0
8 72 0
-72 73 0
-24 73 0
-73 72 24 0
-7 -74 0
7 74 0
-74 75 0
-23 75 0
-75 74 23 0
-6 -76 0
6 76 0
-76 77 0
-22 77 0
-77 76 22 0
-5 -78 0
5 78 0
-78 79 0
-21 79 0
-79 78 21 0
-79 -80 0
79 80 0
-81 -71 0
-81 -77 0
71 77 81 0
-82 -68 0
-82 -71 0
-82 -75 0
68 71 75 82 0
-83 -65 0
-83 -68 0
-83 -71 0
-83 -73 0
65 68 71 73 83 0
-80 84 0
-81 84 0
-82 84 0
-83 84 0
-84 80 81 82 83 0
-85 -8 0
-85 24 0
8 -24 85 0
-86 8 0
-86 -24 0
-8 24 86 0
-85 87 0
-86 87 0
-87 85 86 0
-88 -87 0
-88 -65 0
-88 -68 0
-88 -71 0
87 65 68 71 88 0
-89 -84 0
-89 -88 0
84 88 89 0
-90 -84 0
-90 89 0
84 -89 90 0
-91 84 0
-91 -89 0
-84 89 91 0
-90 92 0
-91 92 0
-92 90 91 0
-93 -3 0
-93 19 0
3 -19 93 0
-94 3 0
-94 -19 0
-3 19 94 0
-93 95 0
-94 95 0
-95 93 94 0
-96 -2 0
-96 18 0
2 -18 96 0
-97 2 0
-97 -18 0
-2 18 97 0
-96 98 0
-97 98 0
-98 96 97 0
-99 -1 0
-99 17 0
1 -17 99 0
-100 1 0
-100 -17 0
-1 17 100 0
-99 101 0
-100 101 0
-101 99 100 0
-4 -102 0
4 102 0
-102 103 0
-20 103 0
-103 102 20 0
-3 -104 0
3 104 0
-104 105 0
-19 105 0
-105 104 19 0
-2 -106 0
2 106 0
-106 107 0
-18 107 0
-107 106 18 0
-1 -108 0
1 108 0
-108 109 0
-17 109 0
-109 108 17 0
-109 -110 0
109 110 0
-111 -101 0
-111 -107 0
101 107 111 0
-112 -98 0
-112 -101 0
-112 -105 0
98 101 105 112 0
-113 -95 0
-113 -98 0
-113 -101 0
-113 -103 0
95 98 101 103 113 0
-110 114 0
-111 114 0
-112 114 0
-113 114 0
-114 110 111 112 113 0
-115 -4 0
-115 20 0
4 -20 115 0
-116 4 0
-116 -20 0
-4 20 116 0
-115 117 0
-116 117 0
-117 115 116 0
-118 -117 0
-118 -95 0
-118 -98 0
-118 -101 0
117 95 98 101 118 0
-119 -114 0
-119 -118 0
114 118 119 0
-120 -114 0
-120 119 0
114 -119 120 0
-121 114 0
-121 -119 0
-114 119 121 0
-120 122 0
-121 122 0
-122 120 121 0
-123 -15 0
-123 31 0
15 -31 123 0
-124 15 0
-124 -31 0
-15 31 124 0
-123 125 0
-124 125 0
-125 123 124 0
-126 -14 0
-126 30 0
14 -30 126 0
-127 14 0
-127 -30 0
-14 30 127 0
-126 128 0
-127 128 0
-128 126 127 0
-129 -13 0
-129 29 0
13 -29 129 0
-130 13 0
-130 -29 0
-13 29 130 0
-129 131 0
-130 131 0
-131 129 130 0
-16 -132 0
16 132 0
-132 133 0
-32 133 0
-133 132 32 0
-15 -134 0
15 134 0
-134 135 0
-31 135 0
-135 134 31 0
-14 -136 0
14 136 0
-136 137 0
-30 137 0
-137 136 30 0
-13 -138 0
13 138 0
-138 139 0
-29 139 0
-139 138 29 0
-139 -140 0
139 140 0
-141 -131 0
-141 -137 0
131 137 141 0
-142 -128 0
-142 -131 0
-142 -135 0
128 131 135 142 0
-143 -125 0
-143 -128 0
-143 -131 0
-143 -133 0
125 128 131 133 143 0
-140 144 0
-141 144 0
-142 144 0
-143 144 0
-144 140 141 142 143 0
-145 -16 0
-145 32 0
16 -32 145 0
-146 16 0
-146 -32 0
-16 32 146 0
-145 147 0
-146 147 0
-147 145 146 0
-148 -147 0
-148 -125 0
-148 -128 0
-148 -131 0
147 125 128 131 148 0
-149 -144 0
-149 -148 0
144 148 149 0
-144 -150 0
144 150 0
-150 151 0
-149 151 0
-151 150 149 0
-54 -152 0
54 152 0
-152 153 0
-59 153 0
-153 152 59 0
-84 -154 0
84 154 0
-154 155 0
-89 155 0
-155 154 89 0
-114 -156 0
114 156 0
-156 157 0
-119 157 0
-157 156 119 0
-157 -158 0
157 158 0
-159 -122 0
-159 -155 0
122 155 159 0
-160 -92 0
-160 -122 0
-160 -153 0
92 122 153 160 0
-161 -62 0
-161 -92 0
-161 -122 0
-161 -151 0
62 92 122 151 161 0
-158 162 0
-159 162 0
-160 162 0
-161 162 0
-162 158 159 160 161 0
-163 -144 0
-163 149 0
144 -149 163 0
-164 144 0
-164 -149 0
-144 149 164 0
-163 165 0
-164 165 0
-165 163 164 0
-166 -165 0
-166 -62 0
-166 -92 0
-166 -122 0
165 62 92 122 166 0
-167 -162 0
-167 -166 0
162 166 167 0
-197 -15 0
-197 31 0
15 -31 197 0
-198 15 0
-198 -31 0
-15 31 198 0
-197 199 0
-198 199 0
-199 197 198 0
-200 -14 0
-200 30 0
14 -30 200 0
-201 14 0
-201 -30 0
-14 30 201 0
-200 202 0
-201 202 0
-202 200 201 0
-203 -13 0
-203 29 0
13 -29 203 0
-204 13 0
-204 -29 0
-13 29 204 0
-203 205 0
-204 205 0
-205 203 204 0
-16 -206 0
16 206 0
-206 207 0
-32 207 0
-207 206 32 0
-15 -208 0
15 208 0
-208 209 0
-31 209 0
-209 208 31 0
-14 -210 0
14 210 0
-210 211 0
-30 211 0
-211 210 30 0
-13 -212 0
13 212 0
-212 213 0
-29 213 0
-213 212 29 0
-214 -16 0
-214 32 0
16 -32 214 0
-215 16 0
-215 -32 0
-16 32 215 0
-214 216 0
-215 216 0
-216 214 215 0
-217 -11 0
-217 27 0
11 -27 217 0
-218 11 0
-218 -27 0
-11 27 218 0
-217 219 0
-218 219 0
-219 217 218 0
-220 -10 0
-220 26 0
10 -26 220 0
-221 10 0
-221 -26 0
-10 26 221 0
-220 222 0
-221 222 0
-222 220 221 0
-223 -9 0
-223 25 0
9 -25 223 0
-224 9 0
-224 -25 0
-9 25 224 0
-223 225 0
-224 225 0
-225 223 224 0
-12 -226 0
12 226 0
-226 227 0
-28 227 0
-227 226 28 0
-11 -228 0
11 228 0
-228 229 0
-27 229 0
-229 228 27 0
-10 -230 0
10 230 0
-230 231 0
-26 231 0
-231 230 26 0
-9 -232 0
9 232 0
-232 233 0
-25 233 0
-233 232 25 0
-234 -12 0
-234 28 0
12 -28 234 0
-235 12 0
-235 -28 0
-12 28 235 0
-234 236 0
-235 236 0
-236 234 235 0
-237 -7 0
-237 23 0
7 -23 237 0
-238 7 0
-238 -23 0
-7 23 238 0
-237 239 0
-238 239 0
-239 237 238 0
-240 -6 0
-240 22 0
6 -22 240 0
-241 6 0
-241 -22 0
-6 22 241 0
-240 242 0
-241 242 0
-242 240 241 0
-243 -5 0
-243 21 0
5 -21 243 0
-244 5 0
-244 -21 0
-5 21 244 0
-243 245 0
-244 245 0
-245 243 244 0
-8 -246 0
8 246 0
-246 247 0
-24 247 0
-247 246 24 0
-7 -248 0
7 248 0
-248 249 0
-23 249 0
-249 248 23 0
-6 -250 0
6 250 0
-250 251 0
-22 251 0
-251 250 22 0
-5 -252 0
5 252 0
-252 253 0
-21 253 0
-253 252 21 0
-254 -8 0
-254 24 0
8 -24 254 0
-255 8 0
-255 -24 0
-8 24 255 0
-254 256 0
-255 256 0
-256 254 255 0
-257 -3 0
-257 19 0
3 -19 257 0
-258 3 0
-258 -19 0
-3 19 258 0
-257 259 0
-258 259 0
-259 257 258 0
-260 -2 0
-260 18 0
2 -18 260 0
-261 2 0
-261 -18 0
-2 18 261 0
-260 262 0
-261 262 0
-262 260 261 0
-263 -1 0
-263 17 0
1 -17 263 0
-264 1 0
-264 -17 0
-1 17 264 0
-263 265 0
-264 265 0
-265 263 264 0
-4 -266 0
4 266 0
-266 267 0
-20 267 0
-267 266 20 0
-3 -268 0
3 268 0
-268 269 0
-19 269 0
-269 268 19 0
-2 -270 0
2 270 0
-270 271 0
-18 271 0
-271 270 18 0
-1 -272 0
1 272 0
-272 273 0
-17 273 0
-273 272 17 0
-273 -274 0
273 274 0
-275 -265 0
-275 -271 0
265 271 275 0
-276 -262 0
-276 -265 0
-276 -269 0
262 265 269 276 0
-277 -259 0
-277 -262 0
-277 -265 0
-277 -267 0
259 262 265 267 277 0
-274 278 0
-275 278 0
-276 278 0
-277 278 0
-278 274 275 276 277 0
-279 -4 0
-279 20 0
4 -20 279 0
-280 4 0
-280 -20 0
-4 20 280 0
-279 281 0
-280 281 0
-281 279 280 0
-282 -281 0
-282 -259 0
-282 -262 0
-282 -265 0
281 259 262 265 282 0
-283 -167 168 0
-283 167 -168 0
283 -167 -168 0
283 167 168 0
-284 -166 170 0
-284 166 -170 0
284 -166 -170 0
284 166 170 0
-285 -162 169 0
-285 162 -169 0
285 -162 -169 0
285 162 169 0
-283 -284 -285 286 0
-286 283 0
-286 284 0
-286 285 0
-199 -171 -287 0
-199 171 287 0
199 -171 287 0
199 171 -287 0
-202 -172 -288 0
-202 172 288 0
202 -172 288 0
202 172 -288 0
-205 -173 -289 0
-205 173 289 0
205 -173 289 0
205 173 -289 0
-207 -174 -290 0
-207 174 290 0
207 -174 290 0
207 174 -290 0
-209 -175 -291 0
-209 175 291 0
209 -175 291 0
209 175 -291 0
-211 -176 -292 0
-211 176 292 0
211 -176 292 0
211 176 -292 0
-213 -177 -293 0
-213 177 293 0
213 -177 293 0
213 177 -293 0
-216 -178 -294 0
-216 178 294 0
216 -178 294 0
216 178 -294 0
-219 -179 -295 0
-219 179 295 0
219 -179 295 0
219 179 -295 0
-222 -180 -296 0
-222 180 296 0
222 -180 296 0
222 180 -296 0
-225 -181 -297 0
-225 181 297 0
225 -181 297 0
225 181 -297 0
-227 -182 -298 0
-227 182 298 0
227 -182 298 0
227 182 -298 0
-229 -183 -299 0
-229 183 299 0
229 -183 299 0
229 183 -299 0
-231 -184 -300 0
-231 184 300 0
231 -184 300 0
231 184 -300 0
-233 -185 -301 0
-233 185 301 0
233 -185 301 0
233 185 -301 0
-236 -186 -302 0
-236 186 302 0
236 -186 302 0
236 186 -302 0
-239 -187 -303 0
-239 187 303 0
239 -187 303 0
239 187 -303 0
-242 -188 -304 0
-242 188 304 0
242 -188 304 0
242 188 -304 0
-245 -189 -305 0
-245 189 305 0
245 -189 305 0
245 189 -305 0
-247 -190 -306 0
-247 190 306 0
247 -190 306 0
247 190 -306 0
-249 -191 -307 0
-249 191 307 0
249 -191 307 0
249 191 -307 0
-251 -192 -308 0
-251 192 308 0
251 -192 308 0
251 192 -308 0
-253 -193 -309 0
-253 193 309 0
253 -193 309 0
253 193 -309 0
-256 -194 -310 0
-256 194 310 0
256 -194 310 0
256 194 -310 0
-278 -195 -311 0
-278 195 311 0
278 -195 311 0
278 195 -311 0
-282 -196 -312 0
-282 196 312 0
282 -196 312 0
282 196 -312 0
287 288 289 290 291 292 293 294 295 296 297 298 299 300 301 302 303 304 305 306 307 308 309 310 311 312 286 0
-11 -1098 0
27 -1098 0
11 -27 1098 0
11 -1099 0
-27 -1099 0
-11 27 1099 0
-33 -1100 0
-34 -1100 0
33 34 1100 0
-10 -1101 0
26 -1101 0
10 -26 1101 0
10 -1102 0
-26 -1102 0
-10 26 1102 0
-36 -1103 0
-37 -1103 0
36 37 1103 0
-9 -1104 0
25 -1104 0
9 -25 1104 0
9 -1105 0
-25 -1105 0
-9 25 1105 0
-39 -1106 0
-40 -1106 0
39 40 1106 0
-28 -1107 0
-42 -1107 0
28 42 1107 0
-27 -1108 0
-44 -1108 0
27 44 1108 0
-26 -1109 0
-46 -1109 0
26 46 1109 0
-25 -1110 0
-48 -1110 0
25 48 1110 0
-41 -1111 0
-47 -1111 0
41 47 1111 0
-38 -1112 0
-41 -1112 0
38 41 1112 0
-45 -1113 0
1112 -1113 0
45 -1112 1113 0
-35 -1114 0
1112 -1114 0
35 -1112 1114 0
-43 -1115 0
1114 -1115 0
43 -1114 1115 0
-50 -1116 0
-51 -1116 0
50 51 1116 0
-52 -1117 0
-53 -1117 0
52 53 1117 0
1116 -1118 0
1117 -1118 0
-1116 -1117 1118 0
-12 -1119 0
28 -1119 0
12 -28 1119 0
12 -1120 0
-28 -1120 0
-12 28 1120 0
-55 -1121 0
-56 -1121 0
55 56 1121 0
-57 -1122 0
1114 -1122 0
57 -1114 1122 0
-54 -1123 0
-58 -1123 0
54 58 1123 0
-54 -1124 0
59 -1124 0
54 -59 1124 0
54 -1125 0
-59 -1125 0
-54 59 1125 0
-60 -1126 0
-61 -1126 0
60 61 1126 0
-7 -1127 0
23 -1127 0
7 -23 1127 0
7 -1128 0
-23 -1128 0
-7 23 1128 0
-63 -1129 0
-64 -1129 0
63 64 1129 0
-6 -1130 0
22 -1130 0
6 -22 1130 0
6 -1131 0
-22 -1131 0
-6 22 1131 0
-66 -1132 0
-67 -1132 0
66 67 1132 0
-5 -1133 0
21 -1133 0
5 -21 1133 0
5 -1134 0
-21 -1134 0
-5 21 1134 0
-69 -1135 0
-70 -1135 0
69 70 1135 0
-24 -1136 0
-72 -1136 0
24 72 1136 0
-23 -1137 0
-74 -1137 0
23 74 1137 0
-22 -1138 0
-76 -1138 0
22 76 1138 0
-21 -1139 0
-78 -1139 0
21 78 1139 0
-71 -1140 0
-77 -1140 0
71 77 1140 0
-68 -1141 0
-71 -1141 0
68 71 1141 0
-75 -1142 0
1141 -1142 0
75 -1141 1142 0
-65 -1143 0
1141 -1143 0
65 -1141 1143 0
-73 -1144 0
1143 -1144 0
73 -1143 1144 0
-80 -1145 0
-81 -1145 0
80 81 1145 0
-82 -1146 0
-83 -1146 0
82 83 1146 0
1145 -1147 0
1146 -1147 0
-1145 -1146 1147 0
-8 -1148 0
24 -1148 0
8 -24 1148 0
8 -1149 0
-24 -1149 0
-8 24 1149 0
-85 -1150 0
-86 -1150 0
85 86 1150 0
-87 -1151 0
1143 -1151 0
87 -1143 1151 0
-84 -1152 0
-88 -1152 0
84 88 1152 0
-84 -1153 0
89 -1153 0
84 -89 1153 0
84 -1154 0
-89 -1154 0
-84 89 1154 0
-90 -1155 0
-91 -1155 0
90 91 1155 0
-3 -1156 0
19 -1156 0
3 -19 1156 0
3 -1157 0
-19 -1157 0
-3 19 1157 0
-93 -1158 0
-94 -1158 0
93 94 1158 0
-2 -1159 0
18 -1159 0
2 -18 1159 0
2 -1160 0
-18 -1160 0
-2 18 1160 0
-96 -1161 0
-97 -1161 0
96 97 1161 0
-1 -1162 0
17 -1162 0
1 -17 1162 0
1 -1163 0
-17 -1163 0
-1 17 1163 0
-99 -1164 0
-100 -1164 0
99 100 1164 0
-20 -1165 0
-102 -1165 0
20 102 1165 0
-19 -1166 0
-104 -1166 0
19 104 1166 0
-18 -1167 0
-106 -1167 0
18 106 1167 0
-17 -1168 0
-108 -1168 0
17 108 1168 0
-101 -1169 0
-107 -1169 0
101 107 1169 0
-98 -1170 0
-101 -1170 0
98 101 1170 0
-105 -1171 0
1170 -1171 0
105 -1170 1171 0
-95 -1172 0
1170 -1172 0
95 -1170 1172 0
-103 -1173 0
1172 -1173 0
103 -1172 1173 0
-110 -1174 0
-111 -1174 0
110 111 1174 0
-112 -1175 0
-113 -1175 0
112 113 1175 0
1174 -1176 0
1175 -1176 0
-1174 -1175 1176 0
-4 -1177 0
20 -1177 0
4 -20 1177 0
4 -1178 0
-20 -1178 0
-4 20 1178 0
-115 -1179 0
-116 -1179 0
115 116 1179 0
-117 -1180 0
1172 -1180 0
117 -1172 1180 0
-114 -1181 0
-118 -1181 0
114 118 1181 0
-114 -1182 0
119 -1182 0
114 -119 1182 0
114 -1183 0
-119 -1183 0
-114 119 1183 0
-120 -1184 0
-121 -1184 0
120 121 1184 0
-15 -1185 0
31 -1185 0
15 -31 1185 0
15 -1186 0
-31 -1186 0
-15 31 1186 0
-123 -1187 0
-124 -1187 0
123 124 1187 0
-14 -1188 0
30 -1188 0
14 -30 1188 0
14 -1189 0
-30 -1189 0
-14 30 1189 0
-126 -1190 0
-127 -1190 0
126 127 1190 0
-13 -1191 0
29 -1191 0
13 -29 1191 0
13 -1192 0
-29 -1192 0
-13 29 1192 0
-129 -1193 0
-130 -1193 0
129 130 1193 0
-32 -1194 0
-132 -1194 0
32 132 1194 0
-31 -1195 0
-134 -1195 0
31 134 1195 0
-30 -1196 0
-136 -1196 0
30 136 1196 0
-29 -1197 0
-138 -1197 0
29 138 1197 0
-131 -1198 0
-137 -1198 0
131 137 1198 0
-128 -1199 0
-131 -1199 0
128 131 1199 0
-135 -1200 0
1199 -1200 0
135 -1199 1200 0
-125 -1201 0
1199 -1201 0
125 -1199 1201 0
-133 -1202 0
1201 -1202 0
133 -1201 1202 0
-140 -1203 0
-141 -1203 0
140 141 1203 0
-142 -1204 0
-143 -1204 0
142 143 1204 0
1203 -1205 0
1204 -1205 0
-1203 -1204 1205 0
-16 -1206 0
32 -1206 0
16 -32 1206 0
16 -1207 0
-32 -1207 0
-16 32 1207 0
-145 -1208 0
-146 -1208 0
145 146 1208 0
-147 -1209 0
1201 -1209 0
147 -1201 1209 0
-144 -1210 0
-148 -1210 0
144 148 1210 0
-149 -1211 0
-150 -1211 0
149 150 1211 0
-59 -1212 0
-152 -1212 0
59 152 1212 0
-89 -1213 0
-154 -1213 0
89 154 1213 0
-119 -1214 0
-156 -1214 0
119 156 1214 0
-122 -1215 0
-155 -1215 0
122 155 1215 0
-92 -1216 0
-122 -1216 0
92 122 1216 0
-153 -1217 0
1216 -1217 0
153 -1216 1217 0
-62 -1218 0
1216 -1218 0
62 -1216 1218 0
-151 -1219 0
1218 -1219 0
151 -1218 1219 0
-158 -1220 0
-159 -1220 0
158 159 1220 0
-160 -1221 0
-161 -1221 0
160 161 1221 0
1220 -1222 0
1221 -1222 0
-1220 -1221 1222 0
-144 -1223 0
149 -1223 0
144 -149 1223 0
144 -1224 0
-149 -1224 0
-144 149 1224 0
-163 -1225 0
-164 -1225 0
163 164 1225 0
-165 -1226 0
1218 -1226 0
165 -1218 1226 0
-162 -1227 0
-166 -1227 0
162 166 1227 0
-197 -1228 0
-198 -1228 0
197 198 1228 0
-200 -1229 0
-201 -1229 0
200 201 1229 0
-203 -1230 0
-204 -1230 0
203 204 1230 0
-32 -1231 0
-206 -1231 0
32 206 1231 0
-31 -1232 0
-208 -1232 0
31 208 1232 0
-30 -1233 0
-210 -1233 0
30 210 1233 0
-29 -1234 0
-212 -1234 0
29 212 1234 0
-214 -1235 0
-215 -1235 0
214 215 1235 0
-217 -1236 0
-218 -1236 0
217 218 1236 0
-220 -1237 0
-221 -1237 0
220 221 1237 0
-223 -1238 0
-224 -1238 0
223 224 1238 0
-28 -1239 0
-226 -1239 0
28 226 1239 0
-27 -1240 0
-228 -1240 0
27 228 1240 0
-26 -1241 0
-230 -1241 0
26 230 1241 0
-25 -1242 0
-232 -1242 0
25 232 1242 0
-234 -1243 0
-235 -1243 0
234 235 1243 0
-237 -1244 0
-238 -1244 0
237 238 1244 0
-240 -1245 0
-241 -1245 0
240 241 1245 0
-243 -1246 0
-244 -1246 0
243 244 1246 0
-24 -1247 0
-246 -1247 0
24 246 1247 0
-23 -1248 0
-248 -1248 0
23 248 1248 0
-22 -1249 0
-250 -1249 0
22 250 1249 0
-21 -1250 0
-252 -1250 0
21 252 1250 0
-254 -1251 0
-255 -1251 0
254 255 1251 0
-257 -1252 0
-258 -1252 0
257 258 1252 0
-260 -1253 0
-261 -1253 0
260 261 1253 0
-263 -1254 0
-264 -1254 0
263 264 1254 0
-20 -1255 0
-266 -1255 0
20 266 1255 0
-19 -1256 0
-268 -1256 0
19 268 1256 0
-18 -1257 0
-270 -1257 0
18 270 1257 0
-17 -1258 0
-272 -1258 0
17 272 1258 0
-265 -1259 0
-271 -1259 0
265 271 1259 0
-262 -1260 0
-265 -1260 0
262 265 1260 0
-269 -1261 0
1260 -1261 0
269 -1260 1261 0
-259 -1262 0
1260 -1262 0
259 -1260 1262 0
-267 -1263 0
1262 -1263 0
267 -1262 1263 0
-274 -1264 0
-275 -1264 0
274 275 1264 0
-276 -1265 0
-277 -1265 0
276 277 1265 0
1264 -1266 0
1265 -1266 0
-1264 -1265 1266 0
-279 -1267 0
-280 -1267 0
279 280 1267 0
-281 -1268 0
1262 -1268 0
281 -1262 1268 0
283 -1269 0
284 -1269 0
-283 -284 1269 0
285 -1270 0
1269 -1270 0
-285 -1269 1270 0
-171 -1271 0
-199 -1271 0
171 199 1271 0
171 -1272 0
199 -1272 0
-171 -199 1272 0
-1271 -1273 0
-1272 -1273 0
1271 1272 1273 0
-200 -1274 0
-1189 -1274 0
200 1189 1274 0
172 -1275 0
-202 -1275 0
-172 202 1275 0
1274 -1276 0
-1275 -1276 0
-1274 1275 1276 0
-30 -1277 0
200 -1277 0
30 -200 1277 0
-172 -1278 0
202 -1278 0
172 -202 1278 0
-1277 -1279 0
1278 -1279 0
1277 -1278 1279 0
-1274 -1280 0
-1279 -1280 0
1274 1279 1280 0
-1276 -1281 0
-1280 -1281 0
1276 1280 1281 0
-173 -1282 0
-205 -1282 0
173 205 1282 0
173 -1283 0
205 -1283 0
-173 -205 1283 0
-1282 -1284 0
-1283 -1284 0
1282 1283 1284 0
-174 -1285 0
-207 -1285 0
174 207 1285 0
174 -1286 0
207 -1286 0
-174 -207 1286 0
-1285 -1287 0
-1286 -1287 0
1285 1286 1287 0
-175 -1288 0
-1186 -1288 0
175 1186 1288 0
175 -1289 0
1186 -1289 0
-175 -1186 1289 0
-1288 -1290 0
-1289 -1290 0
1288 1289 1290 0
-176 -1291 0
-1189 -1291 0
176 1189 1291 0
176 -1292 0
1189 -1292 0
-176 -1189 1292 0
-1291 -1293 0
-1292 -1293 0
1291 1292 1293 0
-177 -1294 0
-1192 -1294 0
177 1192 1294 0
177 -1295 0
1192 -1295 0
-177 -1192 1295 0
-1294 -1296 0
-1295 -1296 0
1294 1295 1296 0
-1206 -1297 0
-1207 -1297 0
1206 1207 1297 0
178 -1298 0
-1297 -1298 0
-178 1297 1298 0
-178 -1299 0
1297 -1299 0
178 -1297 1299 0
-1298 -1300 0
-1299 -1300 0
1298 1299 1300 0
-217 -1301 0
-1099 -1301 0
217 1099 1301 0
219 -1302 0
-1301 -1302 0
-219 1301 1302 0
-179 -1303 0
-1302 -1303 0
179 1302 1303 0
-219 -1304 0
-1099 -1304 0
219 1099 1304 0
179 -1305 0
-1304 -1305 0
-179 1304 1305 0
-27 -1306 0
217 -1306 0
27 -217 1306 0
-1305 -1307 0
-1306 -1307 0
1305 1306 1307 0
-1303 -1308 0
1307 -1308 0
1303 -1307 1308 0
-180 -1309 0
-222 -1309 0
180 222 1309 0
180 -1310 0
222 -1310 0
-180 -222 1310 0
-1309 -1311 0
-1310 -1311 0
1309 1310 1311 0
-181 -1312 0
-225 -1312 0
181 225 1312 0
181 -1313 0
225 -1313 0
-181 -225 1313 0
-1312 -1314 0
-1313 -1314 0
1312 1313 1314 0
-182 -1315 0
-227 -1315 0
182 227 1315 0
182 -1316 0
227 -1316 0
-182 -227 1316 0
-1315 -1317 0
-1316 -1317 0
1315 1316 1317 0
-183 -1318 0
-1099 -1318 0
183 1099 1318 0
183 -1319 0
1099 -1319 0
-183 -1099 1319 0
-1318 -1320 0
-1319 -1320 0
1318 1319 1320 0
-184 -1321 0
-1102 -1321 0
184 1102 1321 0
184 -1322 0
1102 -1322 0
-184 -1102 1322 0
-1321 -1323 0
-1322 -1323 0
1321 1322 1323 0
-185 -1324 0
-1105 -1324 0
185 1105 1324 0
185 -1325 0
1105 -1325 0
-185 -1105 1325 0
-1324 -1326 0
-1325 -1326 0
1324 1325 1326 0
-186 -1327 0
-236 -1327 0
186 236 1327 0
186 -1328 0
236 -1328 0
-186 -236 1328 0
-1327 -1329 0
-1328 -1329 0
1327 1328 1329 0
-187 -1330 0
-239 -1330 0
187 239 1330 0
187 -1331 0
239 -1331 0
-187 -239 1331 0
-1330 -1332 0
-1331 -1332 0
1330 1331 1332 0
-240 -1333 0
-1131 -1333 0
240 1131 1333 0
188 -1334 0
-242 -1334 0
-188 242 1334 0
1333 -1335 0
-1334 -1335 0
-1333 1334 1335 0
-22 -1336 0
240 -1336 0
22 -240 1336 0
-188 -1337 0
242 -1337 0
188 -242 1337 0
-1336 -1338 0
1337 -1338 0
1336 -1337 1338 0
-1333 -1339 0
-1338 -1339 0
1333 1338 1339 0
-1335 -1340 0
-1339 -1340 0
1335 1339 1340 0
-189 -1341 0
-245 -1341 0
189 245 1341 0
189 -1342 0
245 -1342 0
-189 -245 1342 0
-1341 -1343 0
-1342 -1343 0
1341 1342 1343 0
-190 -1344 0
-247 -1344 0
190 247 1344 0
190 -1345 0
247 -1345 0
-190 -247 1345 0
-1344 -1346 0
-1345 -1346 0
1344 1345 1346 0
-191 -1347 0
-1128 -1347 0
191 1128 1347 0
191 -1348 0
1128 -1348 0
-191 -1128 1348 0
-1347 -1349 0
-1348 -1349 0
1347 1348 1349 0
-192 -1350 0
-1131 -1350 0
192 1131 1350 0
192 -1351 0
1131 -1351 0
-192 -1131 1351 0
-1350 -1352 0
-1351 -1352 0
1350 1351 1352 0
-193 -1353 0
-1134 -1353 0
193 1134 1353 0
193 -1354 0
1134 -1354 0
-193 -1134 1354 0
-1353 -1355 0
-1354 -1355 0
1353 1354 1355 0
-194 -1356 0
-256 -1356 0
194 256 1356 0
194 -1357 0
256 -1357 0
-194 -256 1357 0
-1356 -1358 0
-1357 -1358 0
1356 1357 1358 0
-195 -1359 0
-278 -1359 0
195 278 1359 0
195 -1360 0
278 -1360 0
-195 -278 1360 0
-1359 -1361 0
-1360 -1361 0
1359 1360 1361 0
-196 -1362 0
-282 -1362 0
196 282 1362 0
196 -1363 0
282 -1363 0
-196 -282 1363 0
-1362 -1364 0
-1363 -1364 0
1362 1363 1364 0
